(set-info :smt-lib-version 2.6)
(set-logic UF)
(set-info :source |Benchmarks from the paper: "Extending Sledgehammer with SMT Solvers" by Jasmin Blanchette, Sascha Bohme, and Lawrence C. Paulson, CADE 2011.  Translated to SMT2 by Andrew Reynolds and Morgan Deters.|)
(set-info :category "industrial")
(set-info :status sat)
(declare-sort S1 0)
(declare-sort S2 0)
(declare-sort S3 0)
(declare-sort S4 0)
(declare-sort S5 0)
(declare-sort S6 0)
(declare-sort S7 0)
(declare-sort S8 0)
(declare-sort S9 0)
(declare-sort S10 0)
(declare-sort S11 0)
(declare-sort S12 0)
(declare-sort S13 0)
(declare-fun f1 () S1)
(declare-fun f2 () S1)
(declare-fun f3 (S2 S3) S4)
(declare-fun f4 (S5 S2) S2)
(declare-fun f5 (S3) S5)
(declare-fun f6 (S6 S3) S3)
(declare-fun f7 (S7 S3) S6)
(declare-fun f8 () S7)
(declare-fun f9 (S8 S9) S3)
(declare-fun f10 () S8)
(declare-fun f11 (S10 S9) S9)
(declare-fun f12 () S10)
(declare-fun f13 () S10)
(declare-fun f14 () S9)
(declare-fun f15 () S6)
(declare-fun f16 () S3)
(declare-fun f17 () S2)
(declare-fun f18 () S3)
(declare-fun f19 (S3) S5)
(declare-fun f20 (S3 S3) S1)
(declare-fun f21 (S11 S3) S9)
(declare-fun f22 (S12 S9) S11)
(declare-fun f23 () S12)
(declare-fun f24 () S10)
(declare-fun f25 (S13 S9) S10)
(declare-fun f26 () S13)
(declare-fun f27 () S7)
(declare-fun f28 () S3)
(declare-fun f29 () S9)
(declare-fun f30 (S9 S9) S1)
(assert (not (= f1 f2)))
(assert (let ((?v_0 (f6 f15 f16))) (not (= (f3 (f4 (f5 (f6 (f7 f8 (f9 f10 (f11 f12 (f11 f13 f14)))) ?v_0)) f17) f18) (f3 (f4 (f19 ?v_0) f17) f18)))))
(assert (= (f20 f18 (f6 (f7 f8 (f9 f10 (f11 f12 (f11 f13 f14)))) (f6 f15 f16))) f1))
(assert (forall ((?v0 S3) (?v1 S2)) (let ((?v_0 (f6 (f7 f8 (f9 f10 (f11 f12 (f11 f13 f14)))) f16))) (=> (= (f20 ?v0 ?v_0) f1) (= (f3 (f4 (f5 ?v_0) ?v1) ?v0) (f3 (f4 (f19 f16) ?v1) ?v0))))))
(assert (= (f11 f12 f14) f14))
(assert (forall ((?v0 S9)) (= (= f14 (f11 f12 ?v0)) (= f14 ?v0))))
(assert (forall ((?v0 S9)) (= (= (f11 f12 ?v0) f14) (= ?v0 f14))))
(assert (forall ((?v0 S9) (?v1 S9)) (= (= (f11 f12 ?v0) (f11 f13 ?v1)) false)))
(assert (forall ((?v0 S9) (?v1 S9)) (= (= (f11 f13 ?v0) (f11 f12 ?v1)) false)))
(assert (forall ((?v0 S9)) (= (= f14 (f11 f13 ?v0)) false)))
(assert (forall ((?v0 S9)) (= (= (f11 f13 ?v0) f14) false)))
(assert (forall ((?v0 S9)) (let ((?v_0 (f11 f24 ?v0))) (= (f21 (f22 f23 ?v_0) (f9 f10 (f11 f12 (f11 f13 f14)))) (f11 (f25 f26 ?v_0) ?v_0)))))
(assert (forall ((?v0 S9)) (let ((?v_0 (f9 f10 ?v0))) (= (f6 (f7 f8 ?v_0) (f9 f10 (f11 f12 (f11 f13 f14)))) (f6 (f7 f27 ?v_0) ?v_0)))))
(assert (= (f6 f15 (f6 f15 f28)) (f9 f10 (f11 f12 (f11 f13 f14)))))
(assert (= (f9 f10 (f11 f12 (f11 f13 f14))) (f6 f15 (f6 f15 f28))))
(assert (= (f21 (f22 f23 f29) (f9 f10 (f11 f12 (f11 f13 f14)))) f29))
(assert (= (f6 (f7 f8 f28) (f9 f10 (f11 f12 (f11 f13 f14)))) f28))
(assert (= f29 (f11 f24 f14)))
(assert (forall ((?v0 S9) (?v1 S9)) (= (f11 f24 (f11 (f25 f26 ?v0) ?v1)) (f11 (f25 f26 (f11 f24 ?v0)) (f11 f24 ?v1)))))
(assert (forall ((?v0 S9) (?v1 S9)) (= (f11 (f25 f26 (f11 f24 ?v0)) (f11 f24 ?v1)) (f11 f24 (f11 (f25 f26 ?v0) ?v1)))))
(assert (forall ((?v0 S9) (?v1 S9)) (= (= (f30 (f11 f24 ?v0) (f11 f24 ?v1)) f1) (= (f30 ?v0 ?v1) f1))))
(assert (forall ((?v0 S9) (?v1 S9) (?v2 S9)) (= (f11 (f25 f26 (f11 f24 ?v0)) (f11 (f25 f26 (f11 f24 ?v1)) ?v2)) (f11 (f25 f26 (f11 f24 (f11 (f25 f26 ?v0) ?v1))) ?v2))))
(assert (forall ((?v0 S9)) (= (= (f30 (f11 f24 ?v0) f29) f1) (= (f30 ?v0 f14) f1))))
(assert (forall ((?v0 S9)) (= (= (f30 f29 (f11 f24 ?v0)) f1) (= (f30 f14 ?v0) f1))))
(assert (forall ((?v0 S9)) (= (f11 (f25 f26 f14) ?v0) f14)))
(assert (forall ((?v0 S9) (?v1 S9)) (= (f11 (f25 f26 (f11 f12 ?v0)) ?v1) (f11 f12 (f11 (f25 f26 ?v0) ?v1)))))
(assert (= f14 f29))
(assert (= (f11 f24 f14) f29))
(assert (= (f9 f10 f14) f28))
(assert (= (f11 f24 f14) f29))
(assert (= f29 (f11 f24 f14)))
(assert (= (f9 f10 f14) f28))
(assert (= f28 (f9 f10 f14)))
(assert (forall ((?v0 S9) (?v1 S3)) (=> (= (f30 ?v0 f29) f1) (= (f30 (f21 (f22 f23 ?v0) (f6 f15 (f6 (f7 f27 (f9 f10 (f11 f12 (f11 f13 f14)))) ?v1))) f29) f1))))
(assert (forall ((?v0 S2)) (= (f4 (f19 f28) ?v0) ?v0)))
(assert (forall ((?v0 S9)) (= (= (f30 f29 (f21 (f22 f23 ?v0) (f9 f10 (f11 f12 (f11 f13 f14))))) f1) (not (= ?v0 f29)))))
(assert (forall ((?v0 S9)) (not (= (f30 (f21 (f22 f23 ?v0) (f9 f10 (f11 f12 (f11 f13 f14)))) f29) f1))))
(check-sat)
(exit)
